SDVRP instances/p02/p02_110_tsplib0_split0.vrp
NAME:.\SDVRP_split
BEST_KNOWN: 0
COMMENT: 0
DIMENSION: 284
CAPACITY: 140
EDGE_WEIGHT_FORMAT: FUNCTION
EDGE_WEIGHT_TYPE: EXACT_2D
NODE_COORD_SECTION
1 0.00000 0.00000
2 -18 -18
3 -18 -18
4 -18 -18
5 -18 -18
6 -18 -18
7 -18 -18
8 -4 -14
9 -4 -14
10 -4 -14
11 -4 -14
12 -4 -14
13 -4 -14
14 -19 5
15 -19 5
16 -19 5
17 5 -5
18 5 -5
19 15 -20
20 15 -20
21 15 -20
22 15 -20
23 15 -20
24 15 -20
25 -7 -6
26 -7 -6
27 -7 -6
28 -7 -6
29 -7 -6
30 -7 -6
31 10 10
32 15 5
33 15 5
34 -14 19
35 -14 19
36 -14 19
37 0 26
38 15 25
39 15 25
40 15 25
41 15 25
42 15 25
43 -5 11
44 -5 11
45 -5 11
46 -5 11
47 -5 11
48 -5 11
49 22 -5
50 22 17
51 22 -16
52 22 -16
53 22 -16
54 22 -16
55 -19 -4
56 -19 -4
57 -19 -4
58 -19 -4
59 -7 4
60 -7 4
61 -31 16
62 22 8
63 22 8
64 22 8
65 22 8
66 22 8
67 22 8
68 26 -26
69 26 -26
70 4 -27
71 4 -27
72 -14 -27
73 -14 -27
74 -14 -27
75 -29 -12
76 -29 -12
77 -29 -12
78 -33 3
79 -33 3
80 -23 24
81 -23 24
82 -23 24
83 -23 24
84 -23 24
85 1 6
86 1 6
87 1 6
88 1 6
89 15 -6
90 -5 -24
91 -5 -24
92 -5 -24
93 -5 -24
94 -5 -24
95 12 -14
96 12 -14
97 3 -14
98 3 -14
99 -9 36
100 -9 36
101 -9 36
102 -9 36
103 -9 36
104 -9 36
105 -18 13
106 -18 13
107 -18 13
108 -18 13
109 -18 13
110 -14 -11
111 -14 -11
112 -14 -11
113 -14 -11
114 -14 -11
115 10 0
116 10 0
117 10 0
118 15 10
119 15 10
120 15 10
121 15 10
122 15 10
123 15 10
124 14 -30
125 20 -25
126 20 -25
127 20 -25
128 20 -25
129 20 -25
130 7 26
131 -10 20
132 -10 10
133 -10 10
134 -10 10
135 -10 10
136 -10 10
137 -28 -23
138 -28 -23
139 -28 -23
140 -25 -26
141 -24 -21
142 -24 -21
143 -24 -21
144 -19 8
145 -19 8
146 -19 8
147 10 -10
148 10 -10
149 10 -10
150 10 -10
151 10 -10
152 10 -10
153 11 2
154 11 2
155 11 2
156 11 2
157 10 -25
158 8 -19
159 8 -19
160 8 -19
161 8 -19
162 8 -19
163 8 -19
164 -28 -2
165 -28 -2
166 -28 -2
167 -28 -2
168 -28 -2
169 -25 16
170 -25 16
171 -25 16
172 -11 -1
173 -11 -1
174 -11 -1
175 14 -2
176 14 -2
177 14 -2
178 15 17
179 27 1
180 27 1
181 27 1
182 27 1
183 27 1
184 27 1
185 -30 30
186 -30 30
187 -30 30
188 -30 30
189 -34 -15
190 -34 -15
191 -34 -15
192 -34 -15
193 25 -13
194 25 -13
195 25 -13
196 25 -13
197 25 -13
198 0 20
199 0 20
200 0 20
201 0 20
202 30 24
203 30 24
204 30 24
205 30 24
206 30 24
207 30 24
208 24 -36
209 24 -36
210 24 -36
211 24 -36
212 24 -36
213 -4 -34
214 -4 -34
215 -4 -34
216 -4 -34
217 -4 -34
218 -4 -34
219 -10 -20
220 -10 -20
221 -10 -20
222 -10 -20
223 -20 -10
224 -20 -10
225 -20 -10
226 -20 -10
227 -20 -10
228 -25 -35
229 -25 -35
230 -25 -35
231 -25 -35
232 10 30
233 10 30
234 10 30
235 10 30
236 10 30
237 17 32
238 5 2
239 5 2
240 5 2
241 5 2
242 5 2
243 5 2
244 -2 -7
245 -2 -7
246 10 -36
247 10 -36
248 10 -36
249 10 -36
250 10 -36
251 10 -36
252 10 -36
253 26 -32
254 26 -32
255 26 -32
256 26 -32
257 26 -32
258 26 -32
259 19 -35
260 19 -35
261 19 -35
262 19 -35
263 19 -35
264 19 -35
265 19 -35
266 -5 20
267 -5 20
268 -5 20
269 -5 20
270 -5 20
271 -5 20
272 -13 -16
273 -13 -16
274 -13 -16
275 -13 -16
276 -13 -16
277 0 -20
278 0 -20
279 0 -20
280 0 -20
281 0 -20
282 0 -20
283 0 -20
284 0 -3
DEMAND_SECTION
1 0
2 7
3 1
4 1
5 1
6 1
7 1
8 1
9 1
10 1
11 1
12 1
13 1
14 1
15 1
16 1
17 7
18 1
19 7
20 1
21 1
22 1
23 1
24 1
25 7
26 1
27 1
28 1
29 1
30 1
31 7
32 1
33 1
34 1
35 1
36 1
37 1
38 7
39 1
40 1
41 1
42 1
43 1
44 1
45 1
46 1
47 1
48 1
49 7
50 7
51 7
52 1
53 1
54 1
55 1
56 1
57 1
58 1
59 1
60 1
61 7
62 7
63 1
64 1
65 1
66 1
67 1
68 7
69 1
70 1
71 1
72 7
73 1
74 1
75 7
76 1
77 1
78 7
79 1
80 7
81 1
82 1
83 1
84 1
85 7
86 1
87 1
88 1
89 1
90 7
91 1
92 1
93 1
94 1
95 1
96 1
97 1
98 1
99 7
100 1
101 1
102 1
103 1
104 1
105 7
106 1
107 1
108 1
109 1
110 7
111 1
112 1
113 1
114 1
115 1
116 1
117 1
118 7
119 1
120 1
121 1
122 1
123 1
124 7
125 7
126 1
127 1
128 1
129 1
130 7
131 7
132 7
133 1
134 1
135 1
136 1
137 1
138 1
139 1
140 1
141 7
142 1
143 1
144 7
145 1
146 1
147 7
148 1
149 1
150 1
151 1
152 1
153 1
154 1
155 1
156 1
157 7
158 1
159 1
160 1
161 1
162 1
163 1
164 7
165 1
166 1
167 1
168 1
169 7
170 1
171 1
172 7
173 1
174 1
175 7
176 1
177 1
178 1
179 7
180 1
181 1
182 1
183 1
184 1
185 7
186 1
187 1
188 1
189 7
190 1
191 1
192 1
193 1
194 1
195 1
196 1
197 1
198 7
199 1
200 1
201 1
202 1
203 1
204 1
205 1
206 1
207 1
208 1
209 1
210 1
211 1
212 1
213 7
214 1
215 1
216 1
217 1
218 1
219 1
220 1
221 1
222 1
223 1
224 1
225 1
226 1
227 1
228 1
229 1
230 1
231 1
232 1
233 1
234 1
235 1
236 1
237 7
238 7
239 1
240 1
241 1
242 1
243 1
244 1
245 1
246 7
247 1
248 1
249 1
250 1
251 1
252 1
253 7
254 1
255 1
256 1
257 1
258 1
259 7
260 1
261 1
262 1
263 1
264 1
265 1
266 7
267 1
268 1
269 1
270 1
271 1
272 7
273 1
274 1
275 1
276 1
277 7
278 1
279 1
280 1
281 1
282 1
283 1
284 1
DEPOT_SECTION
1
-1
EOF