SDVRP instances/p02/p02_110_tsplib0_split0.sol
283 -17 16 149 150 147 146 148 151 94 95 158 160 159 161 157 162 156 123 248 249 251 245 250 246 247 259 258 264 261 263 262 260 210 209 207 208 211 255 257 253 252 254 256 68 67 124 125 126 128 127 18 21 23 22 20 19 52 51 50 53 195 194 192 196 193 48 88 -28 29 25 24 27 26 172 171 173 54 57 56 55 166 164 165 163 167 77 78 60 169 170 168 80 83 81 79 82 186 184 187 185 99 98 102 103 101 100 130 35 34 33 106 105 107 108 104 144 145 143 13 15 14 134 133 135 131 132 58 59 -42 43 47 45 44 46 268 267 266 269 265 270 197 200 198 199 36 129 235 233 232 234 231 236 39 40 37 41 38 206 204 203 201 202 205 49 177 30 120 119 117 118 122 121 32 31 65 61 64 66 63 62 179 180 182 183 181 178 175 174 176 154 152 153 155 114 115 116 -87 84 85 86 242 238 237 241 239 240 -243 244 9 11 12 10 8 7 90 93 91 89 92 218 221 219 220 275 273 274 272 271 109 111 110 112 113 222 226 225 223 224 76 75 74 191 188 189 190 136 137 138 228 230 227 229 139 141 140 142 3 1 5 2 4 6 73 72 71 215 214 216 213 212 217 69 70 279 281 282 277 276 280 278 96 97 283 0 





OBJ=
627.368
BEST_KNOWN=
0.000